SYSTEM = X-carbon
ENCUT = 400
EDIFF = 1E-5
IBRION = 0
IALGO = 48
NSW = 5000
POTIM = 1

NBLOCK = 1
KBLOCK = 1
#ISMEAR = -1
SIGMA = 0.05
LREAL = A

APACO = 10
NPACO = 300
LCHARG = F
TEBEG = 500
TEEND = 500
SMASS = 0

ISYM = 0
