PREC = Accurate
ENCUT = 400
IBRION = 8
EDIFF = 1E-8
IALGO = 38
ISMEAR = 0
SIGMA = 0.05
LREAL = F
ADDGRID = .TRUE.
LWAVE = .FALSE.
LCHARG = .FALSE.
NSW = 1

