Global Parameters
  ISTART =  1            (Read existing wavefunction; if there)
#   ISPIN =  2           (Spin polarised DFT)
   ICHARG =  1           (Non-self-consistent: GGA/LDA band structures)
   LREAL  = .FALSE.         (Projection operators: automatic)
   ENCUT  =  400         (Cut-off energy for plane wave basis set, in eV)
  PREC   =  Normal       (Precision level)
  LWAVE  = .FALSE.        (Write WAVECAR or not)
  LCHARG = .TRUE.        (Write CHGCAR or not)
  ADDGRID= .TRUE.        (Increase grid; helps GGA convergence)
  LORBIT = 11            (projected band calculation)
  NEDOS = 1000
  # LVTOT  = .TRUE.      (Write total electrostatic potential into LOCPOT or not)
  # LVHAR  = .TRUE.      (Write ionic + Hartree electrostatic potential into LOCPOT or not)
  # NELECT =             (No. of electrons: charged cells; be careful)
  # LPLANE = .TRUE.      (Real space distribution; supercells)
  # NPAR   = 4           (Max is no. nodes; don't set for hybrids)
  # NWRITE = 2           (Medium-level output)
  # KPAR   = 2           (Divides k-grid into separate groups)
  # NGX    = 500         (FFT grid mesh density for nice charge/potential plots)
  # NGY    = 500         (FFT grid mesh density for nice charge/potential plots)
  # NGZ    = 500         (FFT grid mesh density for nice charge/potential plots)
 
Electronic Relaxation
  ISMEAR =  0            (Gaussian smearing; metals:1)
  SIGMA  =  0.05         (Smearing value in eV; metals:0.2)
  NELM   =  60           (Max electronic SCF steps)
  NELMIN =  6            (Min electronic SCF steps)
  EDIFF  =  1E-06        (SCF energy convergence; in eV)
  # GGA  =  PS           (PBEsol exchange-correlation)
 
Ionic Relaxation
  NSW    =  0            (Max ionic steps)
  IBRION =  2            (Algorithm: 0-MD; 1-Quasi-New; 2-CG)
  ISIF   =  3            (Stress/relaxation: 2-Ions, 3-Shape/Ions/V, 4-Shape/Ions)
  EDIFFG = -0.01         (Ionic convergence; eV/AA)
  # ISYM =  0             (Symmetry: 0=none; 2=GGA; 3=hybrids)
HSE06 Calculation
  LHFCALC= .TRUE.       (Activate HF)
  AEXX   =  0.25        (25% HF exact exchange, adjusted this value to reproduce experimental band gap)
  HFSCREEN= 0.2         (Switch to screened exchange; e.g. HSE06)
  ALGO   =  ALL         (Electronic Minimisation Algorithm; ALGO=58)
  TIME   =  0.4         (Timestep for IALGO5X)
  PRECFOCK= Normal           (HF FFT grid)
  # NKRED    = 2         (Reduce k-grid-even only, see also NKREDX, NKREDY and NKREDZ)
  #   # HFLMAX   = 4        (HF cut-off: 4d, 6f)
  #     # LDIAG    = .TRUE.   (Diagnolise Eigenvalues) 
